20 92 
85 68 
26 27 
58 75 
55 65 
46 74 
17 43 
11 84 
81 91 
26 82 
23 97 
80 46 
44 45 
30 0 
1 42 
18 73 
87 3 
41 13 
83 99 
41 38 
17 87 
64 86 
82 75 
71 64 
19 97 
46 42 
46 78 
40 90 
75 70 
43 28 
65 13 
1 52 
17 43 
17 52 
94 58 
42 11 
98 7 
98 80 
82 21 
96 53 
70 94 
95 16 
25 35 
59 0 
58 54 
29 75 
67 30 
27 36 
73 96 
40 68 
